c CNF file corresponding to a (partial) station packing problem.
p cnf 3942 198
1 2 3 4 5 6 7 8 9 10 11 12 13 14 0
-1 -2 0
-1 -3 0
-1 -4 0
-1 -5 0
-1 -6 0
-1 -7 0
-1 -8 0
-1 -9 0
-1 -10 0
-1 -11 0
-1 -12 0
-1 -13 0
-1 -14 0
-2 -3 0
-2 -4 0
-2 -5 0
-2 -6 0
-2 -7 0
-2 -8 0
-2 -9 0
-2 -10 0
-2 -11 0
-2 -12 0
-2 -13 0
-2 -14 0
-3 -4 0
-3 -5 0
-3 -6 0
-3 -7 0
-3 -8 0
-3 -9 0
-3 -10 0
-3 -11 0
-3 -12 0
-3 -13 0
-3 -14 0
-4 -5 0
-4 -6 0
-4 -7 0
-4 -8 0
-4 -9 0
-4 -10 0
-4 -11 0
-4 -12 0
-4 -13 0
-4 -14 0
-5 -6 0
-5 -7 0
-5 -8 0
-5 -9 0
-5 -10 0
-5 -11 0
-5 -12 0
-5 -13 0
-5 -14 0
-6 -7 0
-6 -8 0
-6 -9 0
-6 -10 0
-6 -11 0
-6 -12 0
-6 -13 0
-6 -14 0
-7 -8 0
-7 -9 0
-7 -10 0
-7 -11 0
-7 -12 0
-7 -13 0
-7 -14 0
-8 -9 0
-8 -10 0
-8 -11 0
-8 -12 0
-8 -13 0
-8 -14 0
-9 -10 0
-9 -11 0
-9 -12 0
-9 -13 0
-9 -14 0
-10 -11 0
-10 -12 0
-10 -13 0
-10 -14 0
-11 -12 0
-11 -13 0
-11 -14 0
-12 -13 0
-12 -14 0
-13 -14 0
3928 3929 3930 3931 3932 3933 3934 3935 3936 3937 3938 3939 3940 3941 3942 0
-3928 -3929 0
-3928 -3930 0
-3928 -3931 0
-3928 -3932 0
-3928 -3933 0
-3928 -3934 0
-3928 -3935 0
-3928 -3936 0
-3928 -3937 0
-3928 -3938 0
-3928 -3939 0
-3928 -3940 0
-3928 -3941 0
-3928 -3942 0
-3929 -3930 0
-3929 -3931 0
-3929 -3932 0
-3929 -3933 0
-3929 -3934 0
-3929 -3935 0
-3929 -3936 0
-3929 -3937 0
-3929 -3938 0
-3929 -3939 0
-3929 -3940 0
-3929 -3941 0
-3929 -3942 0
-3930 -3931 0
-3930 -3932 0
-3930 -3933 0
-3930 -3934 0
-3930 -3935 0
-3930 -3936 0
-3930 -3937 0
-3930 -3938 0
-3930 -3939 0
-3930 -3940 0
-3930 -3941 0
-3930 -3942 0
-3931 -3932 0
-3931 -3933 0
-3931 -3934 0
-3931 -3935 0
-3931 -3936 0
-3931 -3937 0
-3931 -3938 0
-3931 -3939 0
-3931 -3940 0
-3931 -3941 0
-3931 -3942 0
-3932 -3933 0
-3932 -3934 0
-3932 -3935 0
-3932 -3936 0
-3932 -3937 0
-3932 -3938 0
-3932 -3939 0
-3932 -3940 0
-3932 -3941 0
-3932 -3942 0
-3933 -3934 0
-3933 -3935 0
-3933 -3936 0
-3933 -3937 0
-3933 -3938 0
-3933 -3939 0
-3933 -3940 0
-3933 -3941 0
-3933 -3942 0
-3934 -3935 0
-3934 -3936 0
-3934 -3937 0
-3934 -3938 0
-3934 -3939 0
-3934 -3940 0
-3934 -3941 0
-3934 -3942 0
-3935 -3936 0
-3935 -3937 0
-3935 -3938 0
-3935 -3939 0
-3935 -3940 0
-3935 -3941 0
-3935 -3942 0
-3936 -3937 0
-3936 -3938 0
-3936 -3939 0
-3936 -3940 0
-3936 -3941 0
-3936 -3942 0
-3937 -3938 0
-3937 -3939 0
-3937 -3940 0
-3937 -3941 0
-3937 -3942 0
-3938 -3939 0
-3938 -3940 0
-3938 -3941 0
-3938 -3942 0
-3939 -3940 0
-3939 -3941 0
-3939 -3942 0
-3940 -3941 0
-3940 -3942 0
-3941 -3942 0
